experiment/data/hgs-res/Vrp-Set-E-n101/Vrp-Set-E-n101-hgs/0.hgs1.tour
Route #1: 89 60 83 45 17 84 5 59 6
Route #2: 98 91 44 38 86 16 61
Route #3: 92 37 100 85 93 99 96
Route #4: 94 95 97 87 13
Route #5: 73 74 22 41 15 43 14 42 57 2 58
Route #6: 40 21 72 75 56 4 26
Route #7: 54 55 25 39 67 23
Route #8: 28 76 77 3 68 12
Route #9: 27 53
Route #10: 20 66 65 71 35 34 78 29 24 80
Route #11: 1 51 9 81 33 79 50
Route #12: 69 70 30 32 90 63 10 31
Route #13: 88 62 11 64 49 36 46 8 18
Route #14: 52 7 19 47 48 82
Cost 1082.65
